variable temp index 100000 
variable rand equal round(random(0,1e7,452345))

include settings.lmp

read_data magnetite_bulk_swp_10000K.data

include ff_formic_acid_fe304.param

dump dmp all custom 1000 swap.lammpstrj id mol type q x y z
dump_modify dmp sort id

group feo type 4 5
group fe type 1 2 4 5
variable nfe equal count(fe)
variable nsteps equal round(${nfe}*${nfe})  # Each 100K there are fe*fe swap attempts.


variable ftemp equal v_temp
# Electrostatic relaxation-long
fix swp feo atom/swap 1 1 ${rand} ${temp} ke no types 4 5
fix nvt all nvt temp 300.0 300.0 $(100.0*dt)
thermo  1000
thermo_style custom step v_ftemp pe f_swp[1] f_swp[2]
run  2000000
unfix swp
unfix nvt

thermo_style custom temp pe 
write_data magnetite_3x3_1e5_mc_300_nvt.data
