variable        rand equal round(random(0,1e7,452345))

units		real
atom_style	full
timestep	0.5
boundary	p p p

pair_style	lj/cut/coul/long 12.0
kspace_style	pppm 1.0e-6

pair_modify	mix arithmetic
neighbor	2.0 bin
neigh_modify	every 1 delay 0 check yes  

read_data       magnetite_bulk.data

dump		dmp all custom 1000 swap.lammpstrj id mol type q x y z
dump_modify	dmp sort id

group		Fe type 1 2  # Fe ions. 

fix             nvt all nvt temp 300.0 300.0 $(100.0*dt)  # Nose-Hoover thermostat is kept at 300K.
fix		swp Fe atom/swap 1 1 ${rand} 300.0 ke no types 1 2  # At each timestep "1" MC swap is performed.
thermo		1000
velocity        all create 300.0 ${rand} rot yes mom yes dist gaussian
thermo_style    custom step temp pe f_swp[1] f_swp[2]
run             100000

write_data	magnetite_bulk_swp.data
