variable temp index 1000.0 900.0 800.0 700.0 600.0 500.0 400.0 300.0 200.0 100.0 0.1 
variable rand equal round(random(0,1e7,452345))

include settings.lmp

read_data magnetite_bulk_3x3.data

dump  dmp all custom 10000 swap.lammpstrj id mol type q x y z
dump_modify dmp sort id

variable natoms equal atoms
variable nsteps equal round((${natoms}*${natoms})/11)

group  fe type 1 2
compute  coord fe coord/atom cutoff 2.0
dump coord  fe custom 1 fe.coord id type c_coord
dump_modify  coord sort id
run  0
variable  fet atom c_coord==4
group  fet variable fet
group  feo subtract fe fet
undump  coord

set  group all mol 0
set  group fet mol 1
set  group feo mol 2

variable  fet3 atom "gmask(fet) && q == 1.575"
group  fet3 dynamic fe var fet3 every 100
variable  rfet3 equal count(fet3)/count(fet)

variable  feo3 atom "gmask(feo) && q == 1.575"
group  feo3 dynamic fe var feo3 every 100
variable  rfeo3 equal count(feo3)/count(feo)

label temp_loop

  # Electrostatic relaxation-long
  fix  swp fe atom/swap 1 1 ${rand} ${temp} ke no types 1 2
  thermo  1000
  thermo_style custom step temp pe f_swp[1] f_swp[2] v_rfet3 v_rfeo3
  run  ${nsteps}

next temp
jump SELF temp_loop

write_data magnetite_bulk_swp.data

# Full minimization
fix             relax all box/relax x 0.0 y 0.0 couple xy
minimize        1.0e-6 1.0e-9 1000 10000
unfix relax

# Electrostatic relaxation-short
fix  swp fe atom/swap 1 1 ${rand} 0.1 ke no types 1 2
thermo  1000
thermo_style custom step temp pe f_swp[1] f_swp[2] v_rfet3 v_rfeo3
run  ${nsteps}

# Full minimization
fix             relax all box/relax x 0.0 y 0.0 couple xy
minimize        1.0e-6 1.0e-9 1000 10000
unfix relax

write_data magnetite_bulk_min.data

compute pe all pe
fix print_pe all ave/time 1 1 1 v_rfet3 v_rfeo3 c_pe file pe_bulk_3x3.temp off 1
run 0
