variable temp index 300 1000 1500 2000 2500 3000 10000 100000 1000000 10000000 10000000 100000000
variable rand equal round(random(0,1e7,452345))

include settings.lmp

read_data magnetite_3x3x3_swp_constrained.data

dump dmp all custom 1000 swap.lammpstrj id mol type q x y z
dump_modify dmp sort id

group feo type 4 5
group fe type 1 2 4 5 
variable nfe equal count(fe)
variable nsteps equal round(${nfe}*${nfe})  # Each 100K there are fe*fe swap attempts.
variable pe1 equal 0.0  # Initial pe decleration

variable cnum equal 12

velocity all create 300.0 ${rand} rot yes mom yes dist gaussian

label temp_loop

  variable ftemp equal v_temp
  # Electrostatic relaxation-long
  fix swp feo atom/swap 1 1 ${rand} ${temp} ke no types 4 5
  fix nvt all nvt temp 300.0 300.0 $(100.0*dt)
  thermo  1000
  thermo_style custom step v_ftemp pe f_swp[1] f_swp[2]
  run  ${nsteps}
  unfix swp
  unfix nvt

  variable cnum equal ${cnum}-1
  thermo_style custom step temp pe
  write_data magnetite_bulk_swp_${temp}K.data

next temp
jump SELF temp_loop
label break

thermo_style custom step temp pe
write_data magnetite_3x3_swp_swp.data

