variable temp index 300 1000 10000 100000 1000000 10000000 10000000 100000000
variable rand equal round(random(0,1e7,452345))

include settings.lmp

read_data magnetite_3x3_swp.data

dump dmp all custom 1000 swap.lammpstrj id mol type q x y z
dump_modify dmp sort id

group fe type 1 2
variable nfe equal count(fe)
variable nsteps equal round(${nfe}*${nfe})  # Each 100K there are fe*fe swap attempts.
variable pe1 equal 0.0  # Initial pe decleration

compute  coord fe coord/atom cutoff 2.0
dump coord  fe custom 1 fe.coord id type c_coord
dump_modify  coord sort id
run  0
variable  fet atom c_coord==4
group  fet variable fet
group  feo subtract fe fet
undump  coord

set  group all mol 0
set  group fet mol 1
set  group feo mol 2

variable  fet3 atom "gmask(fet) && q == 1.575"
group  fet3 dynamic fe var fet3 every 100
variable  rfet3 equal count(fet3)/count(fet)

variable  feo3 atom "gmask(feo) && q == 1.575"
group feo3 variable feo3
#group  feo3 dynamic fe var feo3 every 1
#variable  rfeo3 equal count(feo3)/count(feo)

#run 0
set group feo3 type 4
group feo2 subtract feo feo3
set group feo2 type 5


write_data magnetite_3x3x3_swp_constrained.data

quit



variable cnum equal 8 

velocity all create 300.0 ${rand} rot yes mom yes dist gaussian

label temp_loop

  variable ftemp equal v_temp
  # Electrostatic relaxation-long
  fix  swp fe atom/swap 1 1 ${rand} ${temp} ke no types 1 2
  fix  nvt all nvt temp 300.0 300.0 $(100.0*dt)
  thermo  1000
  thermo_style custom step v_ftemp pe f_swp[1] f_swp[2] v_rfet3 v_rfeo3
  run  ${nsteps}
  unfix swp
  unfix nvt

  variable cnum equal ${cnum}-1
  thermo_style custom step temp pe
  write_data magnetite_bulk_swp_${temp}K.data

next temp
jump SELF temp_loop
label break

thermo_style custom step temp pe
write_data magnetite_3x3_swp_swp.data

# Full minimization
fix             relax all box/relax x 0.0 y 0.0 couple xy
minimize        1.0e-6 1.0e-9 1000 10000
unfix relax
write_data magnetite_3x3x3_swp_min1.data

# Electrostatic relaxation-short
fix  swp fe atom/swap 1 1 ${rand} 300.0 ke no types 1 2
thermo  1000
thermo_style custom step temp pe f_swp[1] f_swp[2] v_rfet3 v_rfeo3
run  ${nsteps}

# Full minimization
fix             relax all box/relax x 0.0 y 0.0 couple xy
minimize        1.0e-6 1.0e-9 1000 10000
unfix relax

thermo_style custom step temp pe
write_data magnetite_3x3x3_swp_min2.data

compute pe all pe
fix print_pe all ave/time 1 1 1 v_rfet3 v_rfeo3 c_pe v_ftemp file magnetite_3x3x3.temp off 1
run 0
