#####################-----magnetite-----#########################################

mass  1   55.845   # Iron(II)
mass  2   55.845   # Iron(III)
mass  3   15.9994  # Bridging oxygen

pair_coeff  1  1   9.0298e-07  4.90620  # fe2
pair_coeff  2  2   9.0298e-07  4.90620  # fe3
pair_coeff  3  3   0.1554      3.16554  # ob

##################################################################################
